p edge 50 490
e 1 4
e 1 7
e 1 9
e 1 10
e 1 16
e 1 18
e 1 22
e 1 24
e 1 30
e 1 31
e 1 32
e 1 35
e 1 37
e 1 39
e 1 41
e 1 42
e 1 44
e 1 49
e 2 6
e 2 10
e 2 12
e 2 13
e 2 15
e 2 17
e 2 19
e 2 20
e 2 22
e 2 25
e 2 26
e 2 27
e 2 34
e 2 36
e 2 37
e 2 38
e 2 39
e 2 40
e 2 42
e 2 49
e 2 50
e 3 6
e 3 10
e 3 11
e 3 15
e 3 16
e 3 17
e 3 26
e 3 29
e 3 30
e 3 31
e 3 39
e 3 47
e 3 48
e 4 6
e 4 8
e 4 9
e 4 11
e 4 16
e 4 24
e 4 26
e 4 29
e 4 30
e 4 31
e 4 34
e 4 40
e 4 41
e 4 45
e 4 46
e 4 47
e 4 49
e 5 8
e 5 11
e 5 13
e 5 14
e 5 15
e 5 16
e 5 19
e 5 20
e 5 25
e 5 30
e 5 33
e 5 37
e 5 40
e 5 47
e 5 49
e 6 7
e 6 9
e 6 12
e 6 14
e 6 19
e 6 21
e 6 29
e 6 30
e 6 32
e 6 37
e 6 40
e 6 43
e 6 47
e 6 48
e 7 8
e 7 9
e 7 11
e 7 13
e 7 14
e 7 18
e 7 19
e 7 20
e 7 21
e 7 22
e 7 24
e 7 25
e 7 28
e 7 30
e 7 33
e 7 38
e 7 45
e 8 10
e 8 14
e 8 17
e 8 23
e 8 24
e 8 26
e 8 28
e 8 29
e 8 31
e 8 33
e 8 39
e 8 40
e 8 43
e 8 45
e 8 48
e 9 14
e 9 15
e 9 18
e 9 19
e 9 22
e 9 23
e 9 25
e 9 28
e 9 29
e 9 30
e 9 31
e 9 34
e 9 36
e 9 37
e 9 39
e 9 41
e 9 45
e 9 49
e 10 11
e 10 14
e 10 18
e 10 19
e 10 20
e 10 21
e 10 22
e 10 24
e 10 25
e 10 28
e 10 30
e 10 32
e 10 33
e 10 37
e 10 40
e 11 14
e 11 15
e 11 17
e 11 18
e 11 19
e 11 20
e 11 21
e 11 23
e 11 24
e 11 26
e 11 29
e 11 34
e 11 36
e 11 38
e 11 39
e 11 40
e 11 41
e 11 42
e 11 44
e 11 46
e 11 48
e 11 49
e 12 14
e 12 16
e 12 17
e 12 18
e 12 23
e 12 25
e 12 26
e 12 30
e 12 33
e 12 34
e 12 36
e 12 40
e 12 43
e 12 45
e 13 15
e 13 18
e 13 20
e 13 21
e 13 24
e 13 31
e 13 34
e 13 41
e 13 44
e 13 45
e 13 46
e 13 47
e 13 48
e 13 49
e 14 16
e 14 20
e 14 28
e 14 37
e 14 40
e 14 42
e 14 43
e 14 44
e 14 45
e 15 17
e 15 18
e 15 20
e 15 21
e 15 23
e 15 24
e 15 26
e 15 27
e 15 29
e 15 35
e 15 36
e 15 41
e 15 42
e 15 45
e 15 47
e 15 49
e 16 18
e 16 28
e 16 29
e 16 30
e 16 31
e 16 32
e 16 34
e 16 36
e 16 37
e 16 41
e 16 42
e 16 43
e 16 46
e 17 25
e 17 29
e 17 31
e 17 34
e 17 37
e 17 39
e 17 42
e 17 44
e 17 45
e 17 46
e 17 48
e 18 24
e 18 25
e 18 27
e 18 28
e 18 29
e 18 32
e 18 34
e 18 37
e 18 38
e 18 39
e 18 42
e 18 44
e 18 45
e 18 46
e 18 48
e 18 49
e 19 20
e 19 27
e 19 29
e 19 31
e 19 32
e 19 33
e 19 34
e 19 35
e 19 36
e 19 37
e 19 39
e 19 40
e 19 43
e 19 44
e 19 45
e 20 21
e 20 24
e 20 26
e 20 28
e 20 29
e 20 31
e 20 32
e 20 33
e 20 34
e 20 35
e 20 36
e 20 37
e 20 38
e 20 44
e 20 47
e 20 48
e 20 50
e 21 23
e 21 25
e 21 30
e 21 31
e 21 33
e 21 35
e 21 38
e 21 41
e 21 44
e 21 45
e 21 48
e 21 50
e 22 23
e 22 25
e 22 26
e 22 27
e 22 31
e 22 33
e 22 35
e 22 42
e 22 44
e 22 45
e 22 48
e 22 49
e 22 50
e 23 26
e 23 34
e 23 37
e 23 40
e 23 41
e 23 43
e 23 45
e 23 48
e 23 49
e 23 50
e 24 25
e 24 28
e 24 30
e 24 32
e 24 34
e 24 35
e 24 39
e 24 40
e 24 43
e 24 44
e 24 50
e 25 30
e 25 32
e 25 38
e 25 45
e 25 46
e 25 49
e 25 50
e 26 27
e 26 33
e 26 34
e 26 36
e 26 38
e 26 41
e 26 45
e 26 46
e 26 49
e 26 50
e 27 31
e 27 32
e 27 35
e 27 36
e 27 37
e 27 40
e 27 47
e 27 48
e 27 49
e 28 30
e 28 32
e 28 33
e 28 38
e 28 40
e 28 42
e 28 45
e 28 46
e 28 47
e 28 48
e 28 49
e 29 31
e 29 33
e 29 34
e 29 35
e 29 39
e 29 42
e 29 50
e 30 32
e 30 34
e 30 36
e 30 39
e 30 41
e 30 42
e 30 45
e 30 46
e 30 48
e 31 32
e 31 33
e 31 36
e 31 37
e 31 39
e 31 41
e 31 47
e 32 37
e 32 42
e 32 45
e 33 39
e 33 40
e 33 41
e 33 43
e 33 45
e 33 48
e 33 49
e 34 35
e 34 38
e 34 40
e 34 42
e 34 43
e 34 45
e 34 46
e 34 47
e 34 48
e 34 50
e 35 37
e 35 38
e 35 39
e 35 40
e 35 41
e 35 44
e 35 45
e 35 46
e 35 47
e 35 50
e 36 37
e 36 38
e 36 39
e 36 42
e 36 43
e 36 44
e 36 45
e 36 50
e 37 42
e 37 48
e 38 39
e 38 40
e 38 41
e 38 43
e 38 45
e 38 47
e 38 48
e 39 42
e 39 43
e 39 48
e 40 46
e 40 48
e 40 50
e 41 48
e 41 49
e 42 46
e 42 47
e 42 48
e 42 49
e 42 50
e 43 44
e 43 47
e 44 45
e 44 46
e 44 47
e 44 50
e 45 46
e 45 47
e 45 48
e 45 49
e 45 50
e 47 48
e 47 49
e 49 50
